400, 31999400
287, 160401
328, 160402
485, 160403
510, 160404
604, 160405
979, 160406
712, 160407
606, 160408
44, 160409
799, 160410
408, 160411
987, 160412
277, 160413
573, 160414
656, 160415
201, 160416
861, 160417
588, 160418
27, 160419
519, 160420
333, 160421
642, 160422
761, 160423
342, 160424
225, 160425
451, 160426
311, 160427
792, 160428
582, 160429
224, 160430
123, 160431
953, 160432
770, 160433
497, 160434
413, 160435
913, 160436
128, 160437
371, 160438
415, 160439
296, 160440
800, 160441
386, 160442
846, 160443
256, 160444
218, 160445
32, 160446
206, 160447
206, 160448
116, 160449
291, 160450
48, 160451
129, 160452
727, 160453
539, 160454
783, 160455
609, 160456
637, 160457
40, 160458
550, 160459
56, 160460
413, 160461
104, 160462
971, 160463
124, 160464
421, 160465
414, 160466
15, 160467
315, 160468
295, 160469
748, 160470
988, 160471
876, 160472
100, 160473
290, 160474
965, 160475
564, 160476
51, 160477
419, 160478
576, 160479
966, 160480
234, 160481
511, 160482
823, 160483
289, 160484
547, 160485
779, 160486
706, 160487
494, 160488
585, 160489
994, 160490
310, 160491
639, 160492
224, 160493
119, 160494
72, 160495
465, 160496
815, 160497
696, 160498
66, 160499
922, 160500
313, 160501
436, 160502
333, 160503
467, 160504
335, 160505
805, 160506
533, 160507
990, 160508
183, 160509
735, 160510
264, 160511
224, 160512
368, 160513
230, 160514
966, 160515
816, 160516
683, 160517
563, 160518
466, 160519
206, 160520
27, 160521
991, 160522
438, 160523
756, 160524
685, 160525
782, 160526
691, 160527
208, 160528
952, 160529
653, 160530
6, 160531
655, 160532
822, 160533
556, 160534
363, 160535
867, 160536
225, 160537
749, 160538
646, 160539
958, 160540
718, 160541
538, 160542
957, 160543
196, 160544
885, 160545
210, 160546
855, 160547
621, 160548
254, 160549
28, 160550
23, 160551
31, 160552
180, 160553
9, 160554
280, 160555
983, 160556
510, 160557
694, 160558
130, 160559
89, 160560
984, 160561
311, 160562
331, 160563
347, 160564
102, 160565
797, 160566
639, 160567
678, 160568
986, 160569
89, 160570
377, 160571
292, 160572
864, 160573
678, 160574
134, 160575
10, 160576
496, 160577
530, 160578
768, 160579
719, 160580
924, 160581
812, 160582
513, 160583
747, 160584
13, 160585
703, 160586
483, 160587
937, 160588
777, 160589
966, 160590
734, 160591
484, 160592
912, 160593
221, 160594
898, 160595
501, 160596
786, 160597
438, 160598
568, 160599
459, 160600
930, 160601
193, 160602
924, 160603
464, 160604
549, 160605
113, 160606
877, 160607
947, 160608
115, 160609
30, 160610
947, 160611
744, 160612
829, 160613
557, 160614
496, 160615
49, 160616
836, 160617
225, 160618
552, 160619
752, 160620
656, 160621
613, 160622
152, 160623
922, 160624
486, 160625
487, 160626
321, 160627
853, 160628
592, 160629
471, 160630
870, 160631
674, 160632
273, 160633
933, 160634
273, 160635
939, 160636
766, 160637
877, 160638
714, 160639
757, 160640
861, 160641
86, 160642
559, 160643
959, 160644
9, 160645
590, 160646
580, 160647
841, 160648
923, 160649
431, 160650
661, 160651
109, 160652
442, 160653
157, 160654
399, 160655
97, 160656
972, 160657
925, 160658
810, 160659
11, 160660
570, 160661
520, 160662
897, 160663
83, 160664
207, 160665
165, 160666
927, 160667
779, 160668
657, 160669
129, 160670
419, 160671
786, 160672
630, 160673
466, 160674
525, 160675
116, 160676
160, 160677
415, 160678
902, 160679
787, 160680
89, 160681
762, 160682
499, 160683
129, 160684
215, 160685
653, 160686
650, 160687
99, 160688
633, 160689
448, 160690
852, 160691
951, 160692
303, 160693
249, 160694
681, 160695
398, 160696
125, 160697
361, 160698
798, 160699
226, 160700
280, 160701
829, 160702
393, 160703
408, 160704
687, 160705
394, 160706
67, 160707
887, 160708
594, 160709
56, 160710
869, 160711
479, 160712
670, 160713
328, 160714
963, 160715
811, 160716
55, 160717
653, 160718
483, 160719
415, 160720
372, 160721
454, 160722
54, 160723
665, 160724
679, 160725
866, 160726
374, 160727
259, 160728
273, 160729
154, 160730
302, 160731
423, 160732
977, 160733
26, 160734
821, 160735
681, 160736
758, 160737
823, 160738
362, 160739
841, 160740
520, 160741
481, 160742
168, 160743
813, 160744
986, 160745
971, 160746
59, 160747
923, 160748
763, 160749
414, 160750
545, 160751
572, 160752
583, 160753
745, 160754
66, 160755
185, 160756
218, 160757
891, 160758
416, 160759
10, 160760
157, 160761
494, 160762
479, 160763
226, 160764
262, 160765
758, 160766
37, 160767
548, 160768
396, 160769
264, 160770
859, 160771
160, 160772
473, 160773
123, 160774
41, 160775
574, 160776
494, 160777
225, 160778
781, 160779
913, 160780
361, 160781
142, 160782
565, 160783
916, 160784
721, 160785
327, 160786
943, 160787
224, 160788
776, 160789
541, 160790
912, 160791
556, 160792
256, 160793
431, 160794
322, 160795
811, 160796
662, 160797
354, 160798
51, 160799
73, 160800
